Reading model...
...model read.
creating competitive generators file...
...competitive generators recorded.
Loading data...
.. real-time data read.
Compiling instance...
...instance created.
Creating Offer Mitigation (model will solve as dispatch if TRUE)...
...storage offer mitigation file created
Converting model to MPEC...
...converted
NOTE: initial MIP solve with only storage competitive to get feasible solution
Solving...

Welcome to IBM(R) ILOG(R) CPLEX(R) Interactive Optimizer 12.9.0.0
  with Simplex, Mixed Integer & Barrier Optimizers
5725-A06 5725-A29 5724-Y48 5724-Y49 5724-Y54 5724-Y55 5655-Y21
Copyright IBM Corp. 1988, 2019.  All Rights Reserved.

Type 'help' for a list of available commands.
Type 'help' followed by a command name for more
information on commands.

CPLEX> Logfile 'cplex.log' closed.
Logfile 'C:\Users\llavin\Desktop\test826\logs\tmp38u8_a1i.cplex.log' open.
CPLEX> New value for parallel optimization mode: -1
CPLEX> New value for mixed integer optimality gap tolerance: 0.01
CPLEX> New value for emphasis for MIP optimization: 1
CPLEX> New value for integrality tolerance: 1e-12
CPLEX> New value for deterministic time limit in ticks: 50000
CPLEX> Problem 'C:\Users\llavin\Desktop\test826\logs\tmp3gxfxgg9.pyomo.lp' read.
Read time = 0.55 sec. (28.19 ticks)
CPLEX> Problem name         : C:\Users\llavin\Desktop\test826\logs\tmp3gxfxgg9.pyomo.lp
Objective sense      : Maximize
Variables            :  107795  [Nneg: 1,  Box: 44062,  Free: 8928,
                                 Binary: 54804]
Objective nonzeros   :   18421
Linear constraints   :  247027  [Less: 82874,  Greater: 118442,  Equal: 45711]
  Nonzeros           :  625875
  RHS nonzeros       :  135897

Variables            : Min LB: -5000.000        Max UB: 1000000.       
Objective nonzeros   : Min   : 0.008333333      Max   : 208.3333       
Linear constraints   :
  Nonzeros           : Min   : 0.008333333      Max   : 1000000.       
  RHS nonzeros       : Min   : 0.008333333      Max   : 1000000.       
CPLEX> CPXPARAM_Parallel                                -1
CPXPARAM_Emphasis_MIP                            1
CPXPARAM_DetTimeLimit                            50000
CPXPARAM_MIP_Tolerances_MIPGap                   0.01
CPXPARAM_MIP_Tolerances_Integrality              9.9999999999999998e-13
Tried aggregator 3 times.
MIP Presolve eliminated 176778 rows and 37319 columns.
MIP Presolve added 7025 rows and 0 columns.
MIP Presolve modified 51644 coefficients.
Aggregator did 26002 substitutions.
Reduced MIP has 51272 rows, 43600 columns, and 151084 nonzeros.
Reduced MIP has 17238 binaries, 0 generals, 0 SOSs, and 0 indicators.
Presolve time = 0.66 sec. (370.77 ticks)
Probing fixed 797 vars, tightened 12169 bounds.
Probing time = 0.39 sec. (17.41 ticks)
Tried aggregator 2 times.
MIP Presolve eliminated 1809 rows and 1618 columns.
MIP Presolve modified 6453 coefficients.
Aggregator did 56 substitutions.
Reduced MIP has 49407 rows, 41926 columns, and 145496 nonzeros.
Reduced MIP has 16436 binaries, 0 generals, 0 SOSs, and 0 indicators.
Presolve time = 0.28 sec. (260.79 ticks)
Probing fixed 6 vars, tightened 637 bounds.
Probing time = 0.53 sec. (19.72 ticks)
Clique table members: 85735.
MIP emphasis: integer feasibility.
MIP search method: dynamic search.
Parallel mode: opportunistic, using up to 32 threads.
Root relaxation solution time = 1.11 sec. (1974.45 ticks)

        Nodes                                         Cuts/
   Node  Left     Objective  IInf  Best Integer    Best Bound    ItCnt     Gap

      0     0        0.0000   141                      0.0000    10004         
*     0+    0                            0.0000        0.0000             0.00%
      0     0        cutoff              0.0000        0.0000    10013    0.00%
Elapsed time = 4.30 sec. (3649.11 ticks, tree = 0.01 MB, solutions = 1)

Mixed integer rounding cuts applied:  10
Gomory fractional cuts applied:  2

Root node processing (before b&c):
  Real time             =    4.33 sec. (3652.81 ticks)
Parallel b&c, 32 threads:
  Real time             =    0.00 sec. (0.00 ticks)
  Sync time (average)   =    0.00 sec.
  Wait time (average)   =    0.00 sec.
                          ------------
Total (root+branch&cut) =    4.33 sec. (3652.81 ticks)

Solution pool: 1 solution saved.

MIP - Integer optimal solution:  Objective =  2.5238477974e-10
Solution time =    4.34 sec.  Iterations = 10013  Nodes = 0
Deterministic time = 3653.12 ticks  (841.15 ticks/sec)

CPLEX> Incumbent solution written to file 'C:\Users\llavin\Desktop\test826\logs\tmpoj0muw6m.cplex.sol'.
CPLEX> NOTE: no warmstart specified for MIP iteration, default behavior is true
NOTE: resolving with all competitive generators using storage-only solution to warmstart
Solving...

Welcome to IBM(R) ILOG(R) CPLEX(R) Interactive Optimizer 12.9.0.0
  with Simplex, Mixed Integer & Barrier Optimizers
5725-A06 5725-A29 5724-Y48 5724-Y49 5724-Y54 5724-Y55 5655-Y21
Copyright IBM Corp. 1988, 2019.  All Rights Reserved.

Type 'help' for a list of available commands.
Type 'help' followed by a command name for more
information on commands.

CPLEX> Logfile 'cplex.log' closed.
Logfile 'C:\Users\llavin\Desktop\test826\logs\tmpbik6oxza.cplex.log' open.
CPLEX> New value for parallel optimization mode: -1
CPLEX> New value for mixed integer optimality gap tolerance: 0.01
CPLEX> New value for emphasis for MIP optimization: 1
CPLEX> New value for integrality tolerance: 1e-12
CPLEX> New value for deterministic time limit in ticks: 50000
CPLEX> Problem 'C:\Users\llavin\Desktop\test826\logs\tmprproupik.pyomo.lp' read.
Read time = 0.55 sec. (28.24 ticks)
CPLEX> MIP start file 'C:\Users\llavin\Desktop\test826\logs\tmpv7b1172s.cplex.mst' read.
CPLEX> Problem name         : C:\Users\llavin\Desktop\test826\logs\tmprproupik.pyomo.lp
Objective sense      : Maximize
Variables            :  109235  [Nneg: 1,  Box: 45502,  Free: 8928,
                                 Binary: 54804]
Objective nonzeros   :   19813
Linear constraints   :  247027  [Less: 82874,  Greater: 118442,  Equal: 45711]
  Nonzeros           :  625875
  RHS nonzeros       :  135897

Variables            : Min LB: -5000.000        Max UB: 1000000.       
Objective nonzeros   : Min   : 0.008333333      Max   : 208.3333       
Linear constraints   :
  Nonzeros           : Min   : 0.008333333      Max   : 1000000.       
  RHS nonzeros       : Min   : 0.008333333      Max   : 1000000.       
CPLEX> CPXPARAM_Parallel                                -1
CPXPARAM_Emphasis_MIP                            1
CPXPARAM_DetTimeLimit                            50000
CPXPARAM_MIP_Tolerances_MIPGap                   0.01
CPXPARAM_MIP_Tolerances_Integrality              9.9999999999999998e-13
Warning:  No solution found from 1 MIP starts.
Retaining values of one MIP start for possible repair.
Tried aggregator 3 times.
MIP Presolve eliminated 176778 rows and 38759 columns.
MIP Presolve added 7025 rows and 0 columns.
MIP Presolve modified 51644 coefficients.
Aggregator did 26002 substitutions.
Reduced MIP has 51272 rows, 43600 columns, and 151084 nonzeros.
Reduced MIP has 17238 binaries, 0 generals, 0 SOSs, and 0 indicators.
Presolve time = 0.66 sec. (371.54 ticks)
Probing fixed 797 vars, tightened 12169 bounds.
Probing time = 0.39 sec. (17.41 ticks)
Tried aggregator 2 times.
MIP Presolve eliminated 1809 rows and 1618 columns.
MIP Presolve modified 6453 coefficients.
Aggregator did 56 substitutions.
Reduced MIP has 49407 rows, 41926 columns, and 145496 nonzeros.
Reduced MIP has 16436 binaries, 0 generals, 0 SOSs, and 0 indicators.
Presolve time = 0.28 sec. (260.80 ticks)
Probing fixed 6 vars, tightened 637 bounds.
Probing time = 0.55 sec. (19.72 ticks)
Clique table members: 85735.
MIP emphasis: integer feasibility.
MIP search method: dynamic search.
Parallel mode: opportunistic, using up to 32 threads.
Root relaxation solution time = 1.34 sec. (2212.27 ticks)

        Nodes                                         Cuts/
   Node  Left     Objective  IInf  Best Integer    Best Bound    ItCnt     Gap

      0     0    13059.4425   454                  13059.4425    11690         
      0     0    11931.0622   322                   Cuts: 199    12103         
      0     0    11855.7884   308                    Cuts: 72    12194         
      0     0    11855.7884   340                    Cuts: 84    12244         
Repair heuristic found nothing.
      0    27    10459.2876   310                   Covers: 1    12423         
Elapsed time = 8.95 sec. (4999.39 ticks, tree = 0.02 MB, solutions = 0)
    282   109    10191.3239   261                  11622.7132    12886         
    607   254     9230.3137   236                  11622.7132    13806         
    898   719     8244.5393   200                  11622.7132    19129         
   1263   687     7880.4621   177                  11622.7132    18739         
   1508   969     7642.6321   170                  11622.7132    22286         
   1819  1147     5803.4921   172                  11622.7132    24541         
   2133  1479     4803.1773   163                  11622.7132    27816         
   2431  1607     1619.1985   117                  11622.7132    30197         
   2841  1719    -2050.9608    69                  11622.7132    32859         
*  3111+ 1824                            0.0000    11622.7132              --- 
Elapsed time = 24.41 sec. (7284.22 ticks, tree = 18.46 MB, solutions = 1)
   4777  2184    -2334.0349    75        0.0000    11622.7132    54151     --- 
   5849   512        0.0000    65        0.0000    11622.7132   130004     --- 

Cover cuts applied:  4
Implied bound cuts applied:  16
Flow cuts applied:  245
Mixed integer rounding cuts applied:  51

Root node processing (before b&c):
  Real time             =    6.11 sec. (4949.27 ticks)
Parallel b&c, 32 threads:
  Real time             =   24.19 sec. (5030.84 ticks)
  Sync time (average)   =    1.83 sec.
  Wait time (average)   =    0.00 sec.
                          ------------
Total (root+branch&cut) =   30.30 sec. (9980.11 ticks)

Solution pool: 8 solutions saved.

MIP - Integer optimal, tolerance (0.01/1e-06):  Objective =  2.3237589630e-10
Current MIP best bound =  2.4139756860e-10 (gap = 9.02167e-12, 0.00%)
Solution time =   30.31 sec.  Iterations = 139147  Nodes = 5853 (29)
Deterministic time = 9980.43 ticks  (329.26 ticks/sec)

CPLEX> Incumbent solution written to file 'C:\Users\llavin\Desktop\test826\logs\tmpo6j2g6ot.cplex.sol'.
CPLEX> Exporting results... 
